c This is QMaxSAT 2017 based on 14.07
c This is Glucose 3.0
c This is MiniSat 2.2.0
c WARNING: for repeatability, setting FPU to use double precision
c card = mrwto, comp = 0, pmodel = 0, narr = 36, mct = 76, verb = 0
cr firstCPXsol 0 0 0
c top = 189219
c |  Number of variables:    24642                                            |
c |  Number of clauses:      2109447                                          |
c |  Weight of hard clauses: 189219                                           |
c |  Number of soft clauses: 394200                                           |
c |  Number of unit soft clauses: 0                                           |
c |  Maximum Cardinality (by unit): 12774168     (0           )               |
c last restart ## conflicts  :  1 8454 
o 648 | cpuTime 3.00375 s
c Sum of weights = 354838
c A number of soft clauses remained = 10950
c MRWTO encoding for Pseudo-Boolean Constraints
c sizeMax=648
c No.0 Divisor=9	generated by pow1
c No.1 Divisor=9	generated by pow1
c No.2 Divisor=9	generated by pow1
c p0= 9	p1= 9	p2= 9	
c number of digits = 4
c linkingVar[0].size = 9, linkingVar[1].size = 9, linkingVar[2].size = 9, linkingVar[3].size = 1, 
c Pseudo-Boolean Constraints: 190028 variables and 1386600 clauses
c Sum of weights = 354838
c A number of soft clauses remained = 10950
c MRWTO encoding for Pseudo-Boolean Constraints
c sizeMax=648
c No.0 Divisor=9	generated by pow1
c No.1 Divisor=9	generated by pow1
c No.2 Divisor=9	generated by pow1
c p0= 9	p1= 9	p2= 9	
c number of digits = 4
c linkingVar[0].size = 9, linkingVar[1].size = 9, linkingVar[2].size = 9, linkingVar[3].size = 1, 
c Pseudo-Boolean Constraints: 190028 variables and 1386600 clauses
c Sum of weights = 354838
c A number of soft clauses remained = 10950
c MRWTO encoding for Pseudo-Boolean Constraints
c sizeMax=648
c No.0 Divisor=9	generated by pow1
c No.1 Divisor=9	generated by pow1
c No.2 Divisor=9	generated by pow1
c p0= 9	p1= 9	p2= 9	
c number of digits = 4
c linkingVar[0].size = 9, linkingVar[1].size = 9, linkingVar[2].size = 9, linkingVar[3].size = 1, 
c Pseudo-Boolean Constraints: 190028 variables and 1386600 clauses
c Sum of weights = 354838
c A number of soft clauses remained = 10950
c MRWTO encoding for Pseudo-Boolean Constraints
c sizeMax=648
c No.0 Divisor=9	generated by pow1
c No.1 Divisor=9	generated by pow1
c No.2 Divisor=9	generated by pow1
c p0= 9	p1= 9	p2= 9	
c number of digits = 4
c linkingVar[0].size = 9, linkingVar[1].size = 9, linkingVar[2].size = 9, linkingVar[3].size = 1, 
c Pseudo-Boolean Constraints: 190028 variables and 1386600 clauses
c Sum of weights = 354838
c A number of soft clauses remained = 10950
c MRWTO encoding for Pseudo-Boolean Constraints
c sizeMax=648
c No.0 Divisor=9	generated by pow1
c No.1 Divisor=9	generated by pow1
c No.2 Divisor=9	generated by pow1
c p0= 9	p1= 9	p2= 9	
c number of digits = 4
c linkingVar[0].size = 9, linkingVar[1].size = 9, linkingVar[2].size = 9, linkingVar[3].size = 1, 
c Pseudo-Boolean Constraints: 190028 variables and 1386600 clauses
c Sum of weights = 354838
c A number of soft clauses remained = 10950
c MRWTO encoding for Pseudo-Boolean Constraints
c sizeMax=648
c No.0 Divisor=9	generated by pow1
c No.1 Divisor=9	generated by pow1
c No.2 Divisor=9	generated by pow1
c p0= 9	p1= 9	p2= 9	
c number of digits = 4
c linkingVar[0].size = 9, linkingVar[1].size = 9, linkingVar[2].size = 9, linkingVar[3].size = 1, 
c Pseudo-Boolean Constraints: 190028 variables and 1386600 clauses
c Sum of weights = 354838
c A number of soft clauses remained = 10950
c MRWTO encoding for Pseudo-Boolean Constraints
c sizeMax=648
c No.0 Divisor=9	generated by pow1
c No.1 Divisor=9	generated by pow1
c No.2 Divisor=9	generated by pow1
c p0= 9	p1= 9	p2= 9	
c number of digits = 4
c linkingVar[0].size = 9, linkingVar[1].size = 9, linkingVar[2].size = 9, linkingVar[3].size = 1, 
c Pseudo-Boolean Constraints: 190028 variables and 1386600 clauses
c Sum of weights = 354838
c A number of soft clauses remained = 10950
c MRWTO encoding for Pseudo-Boolean Constraints
c sizeMax=648
c No.0 Divisor=9	generated by pow1
c No.1 Divisor=9	generated by pow1
c No.2 Divisor=9	generated by pow1
c p0= 9	p1= 9	p2= 9	
c number of digits = 4
c linkingVar[0].size = 9, linkingVar[1].size = 9, linkingVar[2].size = 9, linkingVar[3].size = 1, 
c Pseudo-Boolean Constraints: 190028 variables and 1386600 clauses
c Sum of weights = 354838
c A number of soft clauses remained = 10950
c MRWTO encoding for Pseudo-Boolean Constraints
c sizeMax=648
c No.0 Divisor=9	generated by pow1
c No.1 Divisor=9	generated by pow1
c No.2 Divisor=9	generated by pow1
c p0= 9	p1= 9	p2= 9	
c number of digits = 4
c linkingVar[0].size = 9, linkingVar[1].size = 9, linkingVar[2].size = 9, linkingVar[3].size = 1, 
c Pseudo-Boolean Constraints: 190028 variables and 1386600 clauses
c Sum of weights = 354838
c A number of soft clauses remained = 10950
c MRWTO encoding for Pseudo-Boolean Constraints
c sizeMax=648
c No.0 Divisor=9	generated by pow1
c No.1 Divisor=9	generated by pow1
c No.2 Divisor=9	generated by pow1
c p0= 9	p1= 9	p2= 9	
c number of digits = 4
c linkingVar[0].size = 9, linkingVar[1].size = 9, linkingVar[2].size = 9, linkingVar[3].size = 1, 
c Pseudo-Boolean Constraints: 190028 variables and 1386600 clauses
c Sum of weights = 354838
c A number of soft clauses remained = 10950
c MRWTO encoding for Pseudo-Boolean Constraints
c sizeMax=648
c No.0 Divisor=9	generated by pow1
c No.1 Divisor=9	generated by pow1
c No.2 Divisor=9	generated by pow1
c p0= 9	p1= 9	p2= 9	
c number of digits = 4
c linkingVar[0].size = 9, linkingVar[1].size = 9, linkingVar[2].size = 9, linkingVar[3].size = 1, 
c Pseudo-Boolean Constraints: 190028 variables and 1386600 clauses
c Sum of weights = 354838
c A number of soft clauses remained = 10950
c MRWTO encoding for Pseudo-Boolean Constraints
c sizeMax=648
c No.0 Divisor=9	generated by pow1
c No.1 Divisor=9	generated by pow1
c No.2 Divisor=9	generated by pow1
c p0= 9	p1= 9	p2= 9	
c number of digits = 4
c linkingVar[0].size = 9, linkingVar[1].size = 9, linkingVar[2].size = 9, linkingVar[3].size = 1, 
c Pseudo-Boolean Constraints: 190028 variables and 1386600 clauses
c Sum of weights = 354838
c A number of soft clauses remained = 10950
c MRWTO encoding for Pseudo-Boolean Constraints
c sizeMax=648
c No.0 Divisor=9	generated by pow1
c No.1 Divisor=9	generated by pow1
c No.2 Divisor=9	generated by pow1
c p0= 9	p1= 9	p2= 9	
c number of digits = 4
c linkingVar[0].size = 9, linkingVar[1].size = 9, linkingVar[2].size = 9, linkingVar[3].size = 1, 
c Pseudo-Boolean Constraints: 190028 variables and 1386600 clauses
c Sum of weights = 354838
c A number of soft clauses remained = 10950
c MRWTO encoding for Pseudo-Boolean Constraints
c sizeMax=648
c No.0 Divisor=9	generated by pow1
c No.1 Divisor=9	generated by pow1
c No.2 Divisor=9	generated by pow1
c p0= 9	p1= 9	p2= 9	
c number of digits = 4
c linkingVar[0].size = 9, linkingVar[1].size = 9, linkingVar[2].size = 9, linkingVar[3].size = 1, 
c Pseudo-Boolean Constraints: 190028 variables and 1386600 clauses
c Sum of weights = 354838
c A number of soft clauses remained = 10950
c MRWTO encoding for Pseudo-Boolean Constraints
c sizeMax=648
c No.0 Divisor=9	generated by pow1
c No.1 Divisor=9	generated by pow1
c No.2 Divisor=9	generated by pow1
c p0= 9	p1= 9	p2= 9	
c number of digits = 4
c linkingVar[0].size = 9, linkingVar[1].size = 9, linkingVar[2].size = 9, linkingVar[3].size = 1, 
c Pseudo-Boolean Constraints: 190028 variables and 1386600 clauses
c Sum of weights = 354838
c A number of soft clauses remained = 10950
c MRWTO encoding for Pseudo-Boolean Constraints
c sizeMax=648
c No.0 Divisor=9	generated by pow1
c No.1 Divisor=9	generated by pow1
c No.2 Divisor=9	generated by pow1
c p0= 9	p1= 9	p2= 9	
c number of digits = 4
c linkingVar[0].size = 9, linkingVar[1].size = 9, linkingVar[2].size = 9, linkingVar[3].size = 1, 
c Pseudo-Boolean Constraints: 190028 variables and 1386600 clauses
c Sum of weights = 354838
c A number of soft clauses remained = 10950
c MRWTO encoding for Pseudo-Boolean Constraints
c sizeMax=648
c No.0 Divisor=9	generated by pow1
c No.1 Divisor=9	generated by pow1
c No.2 Divisor=9	generated by pow1
c p0= 9	p1= 9	p2= 9	
c number of digits = 4
c linkingVar[0].size = 9, linkingVar[1].size = 9, linkingVar[2].size = 9, linkingVar[3].size = 1, 
c Pseudo-Boolean Constraints: 190028 variables and 1386600 clauses
c Sum of weights = 354838
c A number of soft clauses remained = 10950
c MRWTO encoding for Pseudo-Boolean Constraints
c sizeMax=648
c No.0 Divisor=9	generated by pow1
c No.1 Divisor=9	generated by pow1
c No.2 Divisor=9	generated by pow1
c p0= 9	p1= 9	p2= 9	
c number of digits = 4
c linkingVar[0].size = 9, linkingVar[1].size = 9, linkingVar[2].size = 9, linkingVar[3].size = 1, 
c Pseudo-Boolean Constraints: 190028 variables and 1386600 clauses
c Sum of weights = 354838
c A number of soft clauses remained = 10950
c MRWTO encoding for Pseudo-Boolean Constraints
c sizeMax=648
c No.0 Divisor=9	generated by pow1
c No.1 Divisor=9	generated by pow1
c No.2 Divisor=9	generated by pow1
c p0= 9	p1= 9	p2= 9	
c number of digits = 4
c linkingVar[0].size = 9, linkingVar[1].size = 9, linkingVar[2].size = 9, linkingVar[3].size = 1, 
c Pseudo-Boolean Constraints: 190028 variables and 1386600 clauses
c Sum of weights = 354838
c A number of soft clauses remained = 10950
c MRWTO encoding for Pseudo-Boolean Constraints
c sizeMax=648
c No.0 Divisor=9	generated by pow1
c No.1 Divisor=9	generated by pow1
c No.2 Divisor=9	generated by pow1
c p0= 9	p1= 9	p2= 9	
c number of digits = 4
c linkingVar[0].size = 9, linkingVar[1].size = 9, linkingVar[2].size = 9, linkingVar[3].size = 1, 
c Pseudo-Boolean Constraints: 190028 variables and 1386600 clauses
c Sum of weights = 354838
c A number of soft clauses remained = 10950
c MRWTO encoding for Pseudo-Boolean Constraints
c sizeMax=648
c No.0 Divisor=9	generated by pow1
c No.1 Divisor=9	generated by pow1
c No.2 Divisor=9	generated by pow1
c p0= 9	p1= 9	p2= 9	
c number of digits = 4
c linkingVar[0].size = 9, linkingVar[1].size = 9, linkingVar[2].size = 9, linkingVar[3].size = 1, 
c Pseudo-Boolean Constraints: 190028 variables and 1386600 clauses
c Sum of weights = 354838
c A number of soft clauses remained = 10950
c MRWTO encoding for Pseudo-Boolean Constraints
c sizeMax=648
c No.0 Divisor=9	generated by pow1
c No.1 Divisor=9	generated by pow1
c No.2 Divisor=9	generated by pow1
c p0= 9	p1= 9	p2= 9	
c number of digits = 4
c linkingVar[0].size = 9, linkingVar[1].size = 9, linkingVar[2].size = 9, linkingVar[3].size = 1, 
c Pseudo-Boolean Constraints: 190028 variables and 1386600 clauses
c Sum of weights = 354838
c A number of soft clauses remained = 10950
c MRWTO encoding for Pseudo-Boolean Constraints
c sizeMax=648
c No.0 Divisor=9	generated by pow1
c No.1 Divisor=9	generated by pow1
c No.2 Divisor=9	generated by pow1
c p0= 9	p1= 9	p2= 9	
c number of digits = 4
c linkingVar[0].size = 9, linkingVar[1].size = 9, linkingVar[2].size = 9, linkingVar[3].size = 1, 
c Pseudo-Boolean Constraints: 190028 variables and 1386600 clauses
c Sum of weights = 354838
c A number of soft clauses remained = 10950
c MRWTO encoding for Pseudo-Boolean Constraints
c sizeMax=648
c No.0 Divisor=9	generated by pow1
c No.1 Divisor=9	generated by pow1
c No.2 Divisor=9	generated by pow1
c p0= 9	p1= 9	p2= 9	
c number of digits = 4
c linkingVar[0].size = 9, linkingVar[1].size = 9, linkingVar[2].size = 9, linkingVar[3].size = 1, 
c Pseudo-Boolean Constraints: 190028 variables and 1386600 clauses
c Sum of weights = 354838
c A number of soft clauses remained = 10950
c MRWTO encoding for Pseudo-Boolean Constraints
c sizeMax=648
c No.0 Divisor=9	generated by pow1
c No.1 Divisor=9	generated by pow1
c No.2 Divisor=9	generated by pow1
c p0= 9	p1= 9	p2= 9	
c number of digits = 4
c linkingVar[0].size = 9, linkingVar[1].size = 9, linkingVar[2].size = 9, linkingVar[3].size = 1, 
c Pseudo-Boolean Constraints: 190028 variables and 1386600 clauses
c Sum of weights = 354838
c A number of soft clauses remained = 10950
c MRWTO encoding for Pseudo-Boolean Constraints
c sizeMax=648
c No.0 Divisor=9	generated by pow1
c No.1 Divisor=9	generated by pow1
c No.2 Divisor=9	generated by pow1
c p0= 9	p1= 9	p2= 9	
c number of digits = 4
c linkingVar[0].size = 9, linkingVar[1].size = 9, linkingVar[2].size = 9, linkingVar[3].size = 1, 
c Pseudo-Boolean Constraints: 190028 variables and 1386600 clauses
c Sum of weights = 354838
c A number of soft clauses remained = 10950
c MRWTO encoding for Pseudo-Boolean Constraints
c sizeMax=648
c No.0 Divisor=9	generated by pow1
c No.1 Divisor=9	generated by pow1
c No.2 Divisor=9	generated by pow1
c p0= 9	p1= 9	p2= 9	
c number of digits = 4
c linkingVar[0].size = 9, linkingVar[1].size = 9, linkingVar[2].size = 9, linkingVar[3].size = 1, 
c Pseudo-Boolean Constraints: 190028 variables and 1386600 clauses
c Sum of weights = 354838
c A number of soft clauses remained = 10950
c MRWTO encoding for Pseudo-Boolean Constraints
c sizeMax=648
c No.0 Divisor=9	generated by pow1
c No.1 Divisor=9	generated by pow1
c No.2 Divisor=9	generated by pow1
c p0= 9	p1= 9	p2= 9	
c number of digits = 4
c linkingVar[0].size = 9, linkingVar[1].size = 9, linkingVar[2].size = 9, linkingVar[3].size = 1, 
c Pseudo-Boolean Constraints: 190028 variables and 1386600 clauses
c Sum of weights = 354838
c A number of soft clauses remained = 10950
c MRWTO encoding for Pseudo-Boolean Constraints
c sizeMax=648
c No.0 Divisor=9	generated by pow1
c No.1 Divisor=9	generated by pow1
c No.2 Divisor=9	generated by pow1
c p0= 9	p1= 9	p2= 9	
c number of digits = 4
c linkingVar[0].size = 9, linkingVar[1].size = 9, linkingVar[2].size = 9, linkingVar[3].size = 1, 
c Pseudo-Boolean Constraints: 190028 variables and 1386600 clauses
c Sum of weights = 354838
c A number of soft clauses remained = 10950
c MRWTO encoding for Pseudo-Boolean Constraints
c sizeMax=648
c No.0 Divisor=9	generated by pow1
c No.1 Divisor=9	generated by pow1
c No.2 Divisor=9	generated by pow1
c p0= 9	p1= 9	p2= 9	
c number of digits = 4
c linkingVar[0].size = 9, linkingVar[1].size = 9, linkingVar[2].size = 9, linkingVar[3].size = 1, 
c Pseudo-Boolean Constraints: 190028 variables and 1386600 clauses
c Sum of weights = 354838
c A number of soft clauses remained = 10950
c MRWTO encoding for Pseudo-Boolean Constraints
c sizeMax=648
c No.0 Divisor=9	generated by pow1
c No.1 Divisor=9	generated by pow1
c No.2 Divisor=9	generated by pow1
c p0= 9	p1= 9	p2= 9	
c number of digits = 4
c linkingVar[0].size = 9, linkingVar[1].size = 9, linkingVar[2].size = 9, linkingVar[3].size = 1, 
c Pseudo-Boolean Constraints: 190028 variables and 1386600 clauses
c Sum of weights = 354838
c A number of soft clauses remained = 10950
c MRWTO encoding for Pseudo-Boolean Constraints
c sizeMax=648
c No.0 Divisor=9	generated by pow1
c No.1 Divisor=9	generated by pow1
c No.2 Divisor=9	generated by pow1
c p0= 9	p1= 9	p2= 9	
c number of digits = 4
c linkingVar[0].size = 9, linkingVar[1].size = 9, linkingVar[2].size = 9, linkingVar[3].size = 1, 
c Pseudo-Boolean Constraints: 190028 variables and 1386600 clauses
c Sum of weights = 354838
c A number of soft clauses remained = 10950
c MRWTO encoding for Pseudo-Boolean Constraints
c sizeMax=648
c No.0 Divisor=9	generated by pow1
c No.1 Divisor=9	generated by pow1
c No.2 Divisor=9	generated by pow1
c p0= 9	p1= 9	p2= 9	
c number of digits = 4
c linkingVar[0].size = 9, linkingVar[1].size = 9, linkingVar[2].size = 9, linkingVar[3].size = 1, 
c Pseudo-Boolean Constraints: 190028 variables and 1386600 clauses
c Sum of weights = 354838
c A number of soft clauses remained = 10950
c MRWTO encoding for Pseudo-Boolean Constraints
c sizeMax=648
c No.0 Divisor=9	generated by pow1
c No.1 Divisor=9	generated by pow1
c No.2 Divisor=9	generated by pow1
c p0= 9	p1= 9	p2= 9	
c number of digits = 4
c linkingVar[0].size = 9, linkingVar[1].size = 9, linkingVar[2].size = 9, linkingVar[3].size = 1, 
c Pseudo-Boolean Constraints: 190028 variables and 1386600 clauses
c Sum of weights = 354838
c A number of soft clauses remained = 10950
c MRWTO encoding for Pseudo-Boolean Constraints
c sizeMax=648
c No.0 Divisor=9	generated by pow1
c No.1 Divisor=9	generated by pow1
c No.2 Divisor=9	generated by pow1
c p0= 9	p1= 9	p2= 9	
c number of digits = 4
c linkingVar[0].size = 9, linkingVar[1].size = 9, linkingVar[2].size = 9, linkingVar[3].size = 1, 
c Pseudo-Boolean Constraints: 190028 variables and 1386600 clauses
c Sum of weights = 354838
c A number of soft clauses remained = 10950
c MRWTO encoding for Pseudo-Boolean Constraints
c sizeMax=648
c No.0 Divisor=9	generated by pow1
c No.1 Divisor=9	generated by pow1
c No.2 Divisor=9	generated by pow1
c p0= 9	p1= 9	p2= 9	
c number of digits = 4
c linkingVar[0].size = 9, linkingVar[1].size = 9, linkingVar[2].size = 9, linkingVar[3].size = 1, 
c Pseudo-Boolean Constraints: 190028 variables and 1386600 clauses
c last restart ## conflicts  :  443 76766 
o 513 | cpuTime 44.4063 s
c last restart ## conflicts  :  177 99102 
o 323 | cpuTime 69.3344 s
c last restart ## conflicts  :  231 59460 
o 238 | cpuTime 89.4478 s
c last restart ## conflicts  :  155 78635 
o 217 | cpuTime 117.894 s
c last restart ## conflicts  :  445 105506 
o 177 | cpuTime 231.836 s
c last restart ## conflicts  :  386 84619 
o 173 | cpuTime 274.586 s
c last restart ## conflicts  :  474 62202 
o 168 | cpuTime 1568.89 s
s UNKNOWN
c Search is stopped by a limit (maybe time-limit)
cr positiVarArr: [ | 59(1->24) | 200(1->54) | 296(1->39) | 437(1->69) | 540(1->61) | 653(1->63) | 711(1->10) | 883(1->71) | 972(1->49) | 1087(1->53) | 1153(1->8) | 1315(1->59) | 1417(1->50) | 1543(1->65) | 1651(1->62) | 1731(1->31) | 1825(1->14) | 1954(1->32) | 2055(1->22) | 2155(1->11) | 2331(1->76) | 2432(1->66) | 2541(1->64) | 2645(1->57) | 2747(1->48) | 2846(1->36) | 2951(1->30) | 3070(1->38) | 3158(1->15) | 3326(1->72) | 3408(1->43) | 3509(1->33) | 3622(1->35) | 3717(1->19) | 3865(1->56) | 3927(1->7) | 4006(2->1) | 4158(3->16) | 4328(4->75) | 4387(5->23) | 4476(6->1) | 4590(7->4) | 4693(8->1) | 4820(9->12) | 4893(10->1) | 5057(11->27) | 5199(12->58) | 5246(13->1) | 5376(14->13) | 5547(15->73) | 5583(16->1) | 5699(17->3) | 5832(18->25) | 5936(19->18) | 6099(20->70) | 6166(21->26) | 6217(22->1) | 6350(23->1) | 6468(24->1) | 6568(25->1) | 6712(26->17) | 6806(27->1) | 6885(28->1) | 6998(29->1) | 7184(30->45) | 7227(31->1) | 7370(32->9) | 7474(33->2) | 7612(34->29) | 7691(35->1) | 7825(36->20) | 7976(37->60) | 8013(38->1) | 8114(39->1) | 8218(40->1) | 8331(41->1) | 8449(42->1) | 8574(43->1) | 8733(44->40) | 8856(45->52) | 8900(46->1) | 9093(47->67) | 9174(48->37) | 9276(49->28) | 9403(50->44) | 9452(51->1) | 9615(52->34) | 9733(53->41) | 9849(54->46) | 9904(55->1) | 10004(56->1) | 10125(57->1) | 10228(58->1) | 10363(59->5) | 10449(60->1) | 10654(61->74) | 10664(62->1) | 10844(63->42) | 10885(64->1) | 11017(65->1) | 11190(66->55) | 11213(67->1) | 11363(68->6) | 11515(69->47) | 11570(70->1) | 11673(71->1) | 11788(72->1) | 11911(73->1) | 12044(74->21) | 12202(75->68) | 12296(76->51) | ]
cr the 1-th chain: [ 1->24->1 ] (#non-depot=1) {#cumul.=2}
cr the 2-th chain: [ 1->54->46->1 ] (#non-depot=2) {#cumul.=4}
cr the 3-th chain: [ 1->39->1 ] (#non-depot=1) {#cumul.=5}
cr the 4-th chain: [ 1->69->47->67->1 ] (#non-depot=3) {#cumul.=8}
cr the 5-th chain: [ 1->61->74->21->26->17->3->16->1 ] (#non-depot=7) {#cumul.=15}
cr the 6-th chain: [ 1->63->42->1 ] (#non-depot=2) {#cumul.=17}
cr the 7-th chain: [ 1->10->1 ] (#non-depot=1) {#cumul.=18}
cr the 8-th chain: [ 1->71->1 ] (#non-depot=1) {#cumul.=19}
cr the 9-th chain: [ 1->49->28->1 ] (#non-depot=2) {#cumul.=21}
cr the 10-th chain: [ 1->53->41->1 ] (#non-depot=2) {#cumul.=23}
cr the 11-th chain: [ 1->8->1 ] (#non-depot=1) {#cumul.=24}
cr the 12-th chain: [ 1->59->5->23->1 ] (#non-depot=3) {#cumul.=27}
cr the 13-th chain: [ 1->50->44->40->1 ] (#non-depot=3) {#cumul.=30}
cr the 14-th chain: [ 1->65->1 ] (#non-depot=1) {#cumul.=31}
cr the 15-th chain: [ 1->62->1 ] (#non-depot=1) {#cumul.=32}
cr the 16-th chain: [ 1->31->1 ] (#non-depot=1) {#cumul.=33}
cr the 17-th chain: [ 1->14->13->1 ] (#non-depot=2) {#cumul.=35}
cr the 18-th chain: [ 1->32->9->12->58->1 ] (#non-depot=4) {#cumul.=39}
cr the 19-th chain: [ 1->22->1 ] (#non-depot=1) {#cumul.=40}
cr the 20-th chain: [ 1->11->27->1 ] (#non-depot=2) {#cumul.=42}
cr the 21-th chain: [ 1->76->51->1 ] (#non-depot=2) {#cumul.=44}
cr the 22-th chain: [ 1->66->55->1 ] (#non-depot=2) {#cumul.=46}
cr the 23-th chain: [ 1->64->1 ] (#non-depot=1) {#cumul.=47}
cr the 24-th chain: [ 1->57->1 ] (#non-depot=1) {#cumul.=48}
cr the 25-th chain: [ 1->48->37->60->1 ] (#non-depot=3) {#cumul.=51}
cr the 26-th chain: [ 1->36->20->70->1 ] (#non-depot=3) {#cumul.=54}
cr the 27-th chain: [ 1->30->45->52->34->29->1 ] (#non-depot=5) {#cumul.=59}
cr the 28-th chain: [ 1->38->1 ] (#non-depot=1) {#cumul.=60}
cr the 29-th chain: [ 1->15->73->1 ] (#non-depot=2) {#cumul.=62}
cr the 30-th chain: [ 1->72->1 ] (#non-depot=1) {#cumul.=63}
cr the 31-th chain: [ 1->43->1 ] (#non-depot=1) {#cumul.=64}
cr the 32-th chain: [ 1->33->2->1 ] (#non-depot=2) {#cumul.=66}
cr the 33-th chain: [ 1->35->1 ] (#non-depot=1) {#cumul.=67}
cr the 34-th chain: [ 1->19->18->25->1 ] (#non-depot=3) {#cumul.=70}
cr the 35-th chain: [ 1->56->1 ] (#non-depot=1) {#cumul.=71}
cr the 36-th chain: [ 1->7->4->75->68->6->1 ] (#non-depot=5) {#cumul.=76}
c Latest Answer = 0 by 8 loops
c restarts              : 11666
c conflicts             : 2059463        (572 /sec)
c decisions             : 182264361      (0.00 % random) (50660 /sec)
c propagations          : 32477099178    (9026922 /sec)
c conflict literals     : 437743160      (23.45 % deleted)
c Memory used           : 6307.00 MB
c CPU time              : 3597.8 s
